NAME : local_9
TYPE : ATSP
DIMENSION : 19
EDGE_WEIGHT_TYPE : EXPLICIT
EDGE_WEIGHT_FORMAT : FULL_MATRIX
EDGE_WEIGHT_SECTION
0 10000000 10000000 10000000 10000000 1033 10000000 10000000 10000000 669 10000000 673 452 10000000 10000000 661 382 668 10000000 
0 0 138 332 10000000 475 10000000 10000000 10000000 10000000 10000000 10000000 10000000 10000000 196 938 962 747 10000000 
0 138 0 348 10000000 403 10000000 10000000 10000000 10000000 10000000 10000000 10000000 10000000 298 815 831 621 10000000 
0 332 348 0 881 275 10000000 920 10000000 10000000 10000000 990 10000000 10000000 508 10000000 921 847 891 
0 10000000 10000000 881 0 834 673 258 814 10000000 708 10000000 10000000 10000000 10000000 10000000 10000000 10000000 564 
0 475 403 275 834 0 10000000 898 10000000 10000000 10000000 720 870 10000000 671 942 704 715 979 
0 10000000 10000000 10000000 673 10000000 0 810 423 734 10000000 814 947 10000000 10000000 10000000 10000000 10000000 10000000 
0 10000000 10000000 920 258 898 810 0 864 10000000 456 10000000 10000000 10000000 10000000 10000000 10000000 10000000 329 
0 10000000 10000000 10000000 814 10000000 423 864 0 927 10000000 10000000 10000000 10000000 10000000 10000000 10000000 10000000 10000000 
0 10000000 10000000 10000000 10000000 10000000 685 10000000 934 0 10000000 455 392 10000000 10000000 10000000 709 10000000 10000000 
0 10000000 10000000 10000000 708 10000000 10000000 456 10000000 10000000 0 10000000 10000000 672 10000000 10000000 10000000 10000000 192 
0 10000000 10000000 990 10000000 720 814 10000000 10000000 455 10000000 0 271 10000000 10000000 999 456 802 10000000 
0 10000000 10000000 10000000 10000000 870 947 10000000 10000000 392 10000000 271 0 10000000 10000000 874 341 740 10000000 
0 10000000 10000000 10000000 10000000 10000000 10000000 10000000 10000000 10000000 672 10000000 10000000 0 10000000 10000000 10000000 10000000 711 
0 196 298 508 10000000 671 10000000 10000000 10000000 10000000 10000000 10000000 10000000 10000000 0 1016 10000000 828 10000000 
0 930 815 10000000 10000000 942 10000000 10000000 10000000 10000000 10000000 999 874 10000000 1001 0 551 272 10000000 
0 962 831 921 10000000 704 10000000 10000000 10000000 709 10000000 456 341 10000000 10000000 551 0 406 10000000 
0 747 621 847 10000000 715 10000000 10000000 10000000 10000000 10000000 802 740 10000000 828 272 406 0 10000000 
0 10000000 10000000 891 564 968 10000000 329 10000000 10000000 192 10000000 10000000 711 10000000 10000000 10000000 10000000 0 
EOF